true true true
presolving:
presolving (0 rounds: 0 fast, 0 medium, 0 exhaustive):
 0 deleted vars, 0 deleted constraints, 0 added constraints, 0 tightened bounds, 0 added holes, 0 changed sides, 0 changed coefficients
 0 implications, 0 cliques
presolved problem has 58 variables (58 bin, 0 int, 0 impl, 0 cont) and 48 constraints
     48 constraints of type <linear>
transformed objective value is always integral (scale: 1)
Presolving Time: 0.00

 time | node  | left  |LP iter|LP it/n|mem/heur|mdpt |vars |cons |rows |cuts |sepa|confs|strbr|  dualbound   | primalbound  |  gap   | compl. 
p 0.0s|     1 |     0 |     0 |     - |shiftand|   0 |  58 |  48 |  48 |   0 |  0 |   0 |   0 |      --      | 1.000000e+01 |    Inf | unknown
 time | node  | left  |LP iter|LP it/n|mem/heur|mdpt |vars |cons |rows |cuts |sepa|confs|strbr|  dualbound   | primalbound  |  gap   | compl. 
  0.0s|     1 |     0 |    37 |     - |  2680k |   0 | 650 |  48 |  48 |   0 |  0 |   0 |   0 |-9.900000e+01 | 1.000000e+01 |    Inf | unknown
 time | node  | left  |LP iter|LP it/n|mem/heur|mdpt |vars |cons |rows |cuts |sepa|confs|strbr|  dualbound   | primalbound  |  gap   | compl. 
  1.8s|     1 |     0 |   486 |     - |  6013k |   0 |1809 |  48 |  48 |   0 |  0 |   0 |   0 | 9.000000e+00 | 1.000000e+01 |  11.11%| unknown
 time | node  | left  |LP iter|LP it/n|mem/heur|mdpt |vars |cons |rows |cuts |sepa|confs|strbr|  dualbound   | primalbound  |  gap   | compl. 
  2.1s|     1 |     2 |  1846 |     - |  6558k |   0 |1809 |  48 |  48 |   0 |  1 |   0 |   0 | 9.000000e+00 | 1.000000e+01 |  11.11%| unknown
 time | node  | left  |LP iter|LP it/n|mem/heur|mdpt |vars |cons |rows |cuts |sepa|confs|strbr|  dualbound   | primalbound  |  gap   | compl. 
  2.7s|     2 |     3 |  1895 |  49.0 |  6705k |   1 |1849 |  48 |  48 |   0 |  1 |   0 |   0 | 9.000000e+00 | 1.000000e+01 |  11.11%| unknown
 time | node  | left  |LP iter|LP it/n|mem/heur|mdpt |vars |cons |rows |cuts |sepa|confs|strbr|  dualbound   | primalbound  |  gap   | compl. 
  3.2s|     3 |     4 |  1939 |  46.5 |  7168k |   1 |1868 |  48 |  48 |   0 |  1 |   0 |   0 | 9.000000e+00 | 1.000000e+01 |  11.11%| unknown
 time | node  | left  |LP iter|LP it/n|mem/heur|mdpt |vars |cons |rows |cuts |sepa|confs|strbr|  dualbound   | primalbound  |  gap   | compl. 
  3.8s|     4 |     5 |  2102 |  85.3 |  8394k |   2 |2172 |  48 |  48 |   0 |  1 |   0 |   0 | 9.000000e+00 | 1.000000e+01 |  11.11%| unknown
 time | node  | left  |LP iter|LP it/n|mem/heur|mdpt |vars |cons |rows |cuts |sepa|confs|strbr|  dualbound   | primalbound  |  gap   | compl. 
  3.9s|     5 |     4 |  2123 |  69.2 |  8673k |   3 |2172 |  48 |  48 |   0 |  0 |   0 |   0 | 9.000000e+00 | 1.000000e+01 |  11.11%| unknown
 time | node  | left  |LP iter|LP it/n|mem/heur|mdpt |vars |cons |rows |cuts |sepa|confs|strbr|  dualbound   | primalbound  |  gap   | compl. 
  4.0s|     6 |     3 |  2143 |  59.4 |  8755k |   3 |2172 |  48 |  48 |   0 |  0 |   0 |   0 | 9.000000e+00 | 1.000000e+01 |  11.11%|   4.58%
 time | node  | left  |LP iter|LP it/n|mem/heur|mdpt |vars |cons |rows |cuts |sepa|confs|strbr|  dualbound   | primalbound  |  gap   | compl. 
  4.2s|     7 |     4 |  2148 |  50.3 |  8755k |   3 |2172 |  48 |  48 |   0 |  1 |   0 |   0 | 9.000000e+00 | 1.000000e+01 |  11.11%|   9.17%
 time | node  | left  |LP iter|LP it/n|mem/heur|mdpt |vars |cons |rows |cuts |sepa|confs|strbr|  dualbound   | primalbound  |  gap   | compl. 
  4.6s|     8 |     5 |  2247 |  57.3 |  8888k |   3 |2200 |  48 |  48 |   0 |  1 |   0 |   0 | 9.000000e+00 | 1.000000e+01 |  11.11%|   9.17%
 time | node  | left  |LP iter|LP it/n|mem/heur|mdpt |vars |cons |rows |cuts |sepa|confs|strbr|  dualbound   | primalbound  |  gap   | compl. 
  4.9s|     9 |     6 |  2549 |  87.9 |  8955k |   3 |2203 |  48 |  48 |   0 |  1 |   0 |   0 | 9.000000e+00 | 1.000000e+01 |  11.11%|   9.17%
 time | node  | left  |LP iter|LP it/n|mem/heur|mdpt |vars |cons |rows |cuts |sepa|confs|strbr|  dualbound   | primalbound  |  gap   | compl. 
  5.3s|    10 |     7 |  2644 |  88.7 |  8979k |   4 |2245 |  48 |  48 |   0 |  1 |   0 |   0 | 9.000000e+00 | 1.000000e+01 |  11.11%|   9.17%
 time | node  | left  |LP iter|LP it/n|mem/heur|mdpt |vars |cons |rows |cuts |sepa|confs|strbr|  dualbound   | primalbound  |  gap   | compl. 
  5.6s|    11 |     8 |  2675 |  82.9 |  8990k |   5 |2249 |  48 |  48 |   0 |  1 |   0 |   0 | 9.000000e+00 | 1.000000e+01 |  11.11%|   9.17%
 time | node  | left  |LP iter|LP it/n|mem/heur|mdpt |vars |cons |rows |cuts |sepa|confs|strbr|  dualbound   | primalbound  |  gap   | compl. 
  5.7s|    12 |     7 |  2686 |  76.4 |  8994k |   5 |2249 |  48 |  48 |   0 |  0 |   0 |   0 | 9.000000e+00 | 1.000000e+01 |  11.11%|   9.17%
 time | node  | left  |LP iter|LP it/n|mem/heur|mdpt |vars |cons |rows |cuts |sepa|confs|strbr|  dualbound   | primalbound  |  gap   | compl. 
  6.0s|    13 |     8 |  2823 |  81.4 |  8994k |   6 |2255 |  48 |  48 |   0 |  1 |   0 |   0 | 9.000000e+00 | 1.000000e+01 |  11.11%|  10.31%
 time | node  | left  |LP iter|LP it/n|mem/heur|mdpt |vars |cons |rows |cuts |sepa|confs|strbr|  dualbound   | primalbound  |  gap   | compl. 
  6.3s|    14 |     9 |  2827 |  75.5 |  9012k |   6 |2255 |  48 |  48 |   0 |  1 |   0 |   0 | 9.000000e+00 | 1.000000e+01 |  11.11%|  10.31%
 time | node  | left  |LP iter|LP it/n|mem/heur|mdpt |vars |cons |rows |cuts |sepa|confs|strbr|  dualbound   | primalbound  |  gap   | compl. 
  6.6s|    15 |    10 |  2861 |  72.5 |  9014k |   7 |2271 |  48 |  48 |   0 |  1 |   0 |   0 | 9.000000e+00 | 1.000000e+01 |  11.11%|  10.31%
 time | node  | left  |LP iter|LP it/n|mem/heur|mdpt |vars |cons |rows |cuts |sepa|confs|strbr|  dualbound   | primalbound  |  gap   | compl. 
  7.0s|    16 |    11 |  2880 |  68.9 |  9016k |   7 |2275 |  48 |  48 |   0 |  1 |   0 |   0 | 9.000000e+00 | 1.000000e+01 |  11.11%|  10.31%
 time | node  | left  |LP iter|LP it/n|mem/heur|mdpt |vars |cons |rows |cuts |sepa|confs|strbr|  dualbound   | primalbound  |  gap   | compl. 
  7.3s|    17 |    12 |  2919 |  67.1 |  9021k |   8 |2281 |  48 |  48 |   0 |  1 |   0 |   0 | 9.000000e+00 | 1.000000e+01 |  11.11%|  10.31%
 time | node  | left  |LP iter|LP it/n|mem/heur|mdpt |vars |cons |rows |cuts |sepa|confs|strbr|  dualbound   | primalbound  |  gap   | compl. 
  7.7s|    18 |    13 |  3015 |  68.8 |  9163k |   8 |2287 |  48 |  48 |   0 |  1 |   0 |   0 | 9.000000e+00 | 1.000000e+01 |  11.11%|  10.31%
 time | node  | left  |LP iter|LP it/n|mem/heur|mdpt |vars |cons |rows |cuts |sepa|confs|strbr|  dualbound   | primalbound  |  gap   | compl. 
  7.9s|    19 |    12 |  3025 |  65.5 |  9172k |   9 |2287 |  48 |  48 |   0 |  0 |   0 |   0 | 9.000000e+00 | 1.000000e+01 |  11.11%|  10.31%
 time | node  | left  |LP iter|LP it/n|mem/heur|mdpt |vars |cons |rows |cuts |sepa|confs|strbr|  dualbound   | primalbound  |  gap   | compl. 
  8.1s|    20 |    13 |  3042 |  62.9 |  9172k |   9 |2287 |  48 |  48 |   0 |  1 |   0 |   0 | 9.000000e+00 | 1.000000e+01 |  11.11%|  10.39%
 time | node  | left  |LP iter|LP it/n|mem/heur|mdpt |vars |cons |rows |cuts |sepa|confs|strbr|  dualbound   | primalbound  |  gap   | compl. 
  8.5s|    21 |    14 |  3206 |  68.0 |  9358k |  10 |2299 |  48 |  48 |   0 |  1 |   0 |   0 | 9.000000e+00 | 1.000000e+01 |  11.11%|  10.39%
 time | node  | left  |LP iter|LP it/n|mem/heur|mdpt |vars |cons |rows |cuts |sepa|confs|strbr|  dualbound   | primalbound  |  gap   | compl. 
  8.9s|    22 |    15 |  3295 |  69.0 |  9949k |  10 |2340 |  48 |  48 |   0 |  1 |   0 |   0 | 9.000000e+00 | 1.000000e+01 |  11.11%|  10.39%
 time | node  | left  |LP iter|LP it/n|mem/heur|mdpt |vars |cons |rows |cuts |sepa|confs|strbr|  dualbound   | primalbound  |  gap   | compl. 
  9.2s|    23 |    16 |  3316 |  66.8 |  9957k |  10 |2340 |  48 |  48 |   0 |  1 |   0 |   0 | 9.000000e+00 | 1.000000e+01 |  11.11%|  10.39%
 time | node  | left  |LP iter|LP it/n|mem/heur|mdpt |vars |cons |rows |cuts |sepa|confs|strbr|  dualbound   | primalbound  |  gap   | compl. 
  9.5s|    24 |    17 |  3325 |  64.3 |    10M |  10 |2341 |  48 |  48 |   0 |  1 |   0 |   0 | 9.000000e+00 | 1.000000e+01 |  11.11%|  10.39%
 time | node  | left  |LP iter|LP it/n|mem/heur|mdpt |vars |cons |rows |cuts |sepa|confs|strbr|  dualbound   | primalbound  |  gap   | compl. 
  9.8s|    25 |    18 |  3342 |  62.3 |    10M |  10 |2347 |  48 |  48 |   0 |  1 |   0 |   0 | 9.000000e+00 | 1.000000e+01 |  11.11%|  10.39%
 time | node  | left  |LP iter|LP it/n|mem/heur|mdpt |vars |cons |rows |cuts |sepa|confs|strbr|  dualbound   | primalbound  |  gap   | compl. 
 10.1s|    26 |    19 |  3416 |  62.8 |    10M |  10 |2402 |  48 |  48 |   0 |  1 |   0 |   0 | 9.000000e+00 | 1.000000e+01 |  11.11%|  10.39%
 time | node  | left  |LP iter|LP it/n|mem/heur|mdpt |vars |cons |rows |cuts |sepa|confs|strbr|  dualbound   | primalbound  |  gap   | compl. 
 10.4s|    27 |    20 |  3430 |  60.9 |    10M |  10 |2406 |  48 |  48 |   0 |  1 |   0 |   0 | 9.000000e+00 | 1.000000e+01 |  11.11%|  10.39%
 time | node  | left  |LP iter|LP it/n|mem/heur|mdpt |vars |cons |rows |cuts |sepa|confs|strbr|  dualbound   | primalbound  |  gap   | compl. 
 10.9s|    28 |    21 |  3616 |  65.6 |    10M |  11 |2444 |  48 |  48 |   0 |  1 |   0 |   0 | 9.000000e+00 | 1.000000e+01 |  11.11%|  10.39%
 time | node  | left  |LP iter|LP it/n|mem/heur|mdpt |vars |cons |rows |cuts |sepa|confs|strbr|  dualbound   | primalbound  |  gap   | compl. 
 11.1s|    29 |    20 |  3632 |  63.8 |    10M |  11 |2444 |  48 |  48 |   0 |  0 |   0 |   0 | 9.000000e+00 | 1.000000e+01 |  11.11%|  10.39%
 time | node  | left  |LP iter|LP it/n|mem/heur|mdpt |vars |cons |rows |cuts |sepa|confs|strbr|  dualbound   | primalbound  |  gap   | compl. 
 11.5s|    30 |    21 |  3659 |  62.5 |    10M |  11 |2451 |  48 |  48 |   0 |  1 |   0 |   0 | 9.000000e+00 | 1.000000e+01 |  11.11%|  10.42%
 time | node  | left  |LP iter|LP it/n|mem/heur|mdpt |vars |cons |rows |cuts |sepa|confs|strbr|  dualbound   | primalbound  |  gap   | compl. 
 11.8s|    31 |    22 |  3672 |  60.9 |    10M |  11 |2454 |  48 |  48 |   0 |  1 |   0 |   0 | 9.000000e+00 | 1.000000e+01 |  11.11%|  10.42%
 time | node  | left  |LP iter|LP it/n|mem/heur|mdpt |vars |cons |rows |cuts |sepa|confs|strbr|  dualbound   | primalbound  |  gap   | compl. 
 12.3s|    32 |    23 |  3845 |  64.5 |    10M |  11 |2467 |  48 |  48 |   0 |  1 |   0 |   0 | 9.000000e+00 | 1.000000e+01 |  11.11%|  10.42%
 time | node  | left  |LP iter|LP it/n|mem/heur|mdpt |vars |cons |rows |cuts |sepa|confs|strbr|  dualbound   | primalbound  |  gap   | compl. 
 12.7s|    33 |    24 |  3970 |  66.4 |    11M |  11 |2508 |  48 |  48 |   0 |  1 |   0 |   0 | 9.000000e+00 | 1.000000e+01 |  11.11%|  10.42%
 time | node  | left  |LP iter|LP it/n|mem/heur|mdpt |vars |cons |rows |cuts |sepa|confs|strbr|  dualbound   | primalbound  |  gap   | compl. 
r12.9s|    34 |     0 |  3992 |  65.0 |simplero|  11 |2508 |  48 |  48 |   0 |  0 |   0 |   0 | 9.000000e+00 | 9.000000e+00 |   0.00%|  99.98%

SCIP Status        : problem is solved [optimal solution found]
Solving Time (sec) : 12.97
Solving Nodes      : 34
Primal Bound       : +9.00000000000000e+00 (5 solutions)
Dual Bound         : +9.00000000000000e+00
Gap                : 0.00 %
Running with parallel: True bidir: True symbreak: True
Number of Nodes:  48
48.878761574074076% holds
starting cheapest insertion heuristic
Heuristic without TSP improvement:  10
Heuristic without TSP improvement time:  0.1
Heuristic Sol:  10
Heuristic total time:  0.1
[[21, 28, 18, 15, 13], [47, 2, 25, 26], [46, 0, 34, 16, 32, 38, 14, 44], [45, 9, 6, 4, 19, 41, 8], [43, 10, 12], [42, 17, 40, 20, 5], [39, 23, 11, 36, 31, 3], [37, 27, 24, 29], [35], [33, 1, 22, 7, 30]]
Instance path:  /home/htc/mghannam/SCRATCH/lccp-rust/data/t84_hk48.npcc
Timelimit:  7200
Heuristic without TSP improvement:  10
Heuristic without TSP improvement time:  0.1
Heuristic Sol:  10
Heuristic total time:  0.2
at 1 zero_duals: 38
Switching to elementary pricing
at1, LP obj: 10.0 n_added_paths: 592
updated lowerbound from -1e+20 to -99
at 1 zero_duals: 24
at1, LP obj: 10.0 n_added_paths: 160
at 1 zero_duals: 9
at1, LP obj: 9.3125 n_added_paths: 263
at 1 zero_duals: 11
at1, LP obj: 9.119333333333334 n_added_paths: 367
at 1 zero_duals: 4
at1, LP obj: 8.864035087719298 n_added_paths: 116
at 1 zero_duals: 3
at1, LP obj: 8.525316455696203 n_added_paths: 107
at 1 zero_duals: 4
Switching to elementary pricing
at1, LP obj: 8.46 n_added_paths: 59
updated lowerbound from 1.0 to 7
at 1 zero_duals: 3
at1, LP obj: 8.277777777777779 n_added_paths: 43
at 1 zero_duals: 3
Switching to elementary pricing
at1, LP obj: 8.263157894736842 n_added_paths: 31
updated lowerbound from 7.0 to 8
at 1 zero_duals: 4
Switching to elementary pricing
at1, LP obj: 8.242424242424242 n_added_paths: 10
updated lowerbound from 8.0 to 9
at 1 zero_duals: 3
Switching to elementary pricing
at1, LP obj: 8.236842105263158 n_added_paths: 2
at 1 zero_duals: 2
Switching to elementary pricing
at1, LP obj: 8.236842105263158 n_added_paths: 1
at 1 zero_duals: 3
Switching to elementary pricing
at1, LP obj: 8.236842105263158 n_added_paths: 0
at 2 zero_duals: 3
Switching to elementary pricing
at2, LP obj: 8.295555555555556 n_added_paths: 39
at 2 zero_duals: 4
Switching to elementary pricing
at2, LP obj: 8.279411764705882 n_added_paths: 1
at 2 zero_duals: 5
Switching to elementary pricing
at2, LP obj: 8.26923076923077 n_added_paths: 0
at 3 zero_duals: 1
Switching to elementary pricing
at3, LP obj: 8.277777777777777 n_added_paths: 16
at 3 zero_duals: 3
Switching to elementary pricing
at3, LP obj: 8.272727272727273 n_added_paths: 3
at 3 zero_duals: 4
Switching to elementary pricing
at3, LP obj: 8.272727272727273 n_added_paths: 0
at 6 zero_duals: 47
Switching to elementary pricing
at6, LP obj: 1e+20 n_added_paths: 10
updated lowerbound from 9.0 to 100000000000000000000
at 6 zero_duals: 47
Switching to elementary pricing
at6, LP obj: 1e+20 n_added_paths: 13
updated lowerbound from 9.0 to 100000000000000000000
at 6 zero_duals: 5
Switching to elementary pricing
at6, LP obj: 9.628571428571428 n_added_paths: 236
at 6 zero_duals: 6
Switching to elementary pricing
at6, LP obj: 8.759842519685039 n_added_paths: 35
at 6 zero_duals: 8
Switching to elementary pricing
at6, LP obj: 8.717948717948717 n_added_paths: 2
at 6 zero_duals: 9
Switching to elementary pricing
at6, LP obj: 8.717948717948719 n_added_paths: 5
at 6 zero_duals: 9
Switching to elementary pricing
at6, LP obj: 8.717948717948717 n_added_paths: 3
at 6 zero_duals: 9
Switching to elementary pricing
at6, LP obj: 8.717948717948717 n_added_paths: 0
at 8 zero_duals: 47
Switching to elementary pricing
at8, LP obj: 1e+20 n_added_paths: 0
updated lowerbound from 9.0 to 100000000000000000000
at 9 zero_duals: 47
Switching to elementary pricing
at9, LP obj: 1e+20 n_added_paths: 0
updated lowerbound from 9.0 to 100000000000000000000
at 7 zero_duals: 5
Switching to elementary pricing
at7, LP obj: 8.273809523809524 n_added_paths: 0
at 10 zero_duals: 1
Switching to elementary pricing
at10, LP obj: 8.371428571428572 n_added_paths: 27
at 10 zero_duals: 3
Switching to elementary pricing
at10, LP obj: 8.321428571428571 n_added_paths: 1
at 10 zero_duals: 3
Switching to elementary pricing
at10, LP obj: 8.321428571428571 n_added_paths: 0
at 11 zero_duals: 6
Switching to elementary pricing
at11, LP obj: 8.303571428571429 n_added_paths: 3
at 11 zero_duals: 5
Switching to elementary pricing
at11, LP obj: 8.303571428571429 n_added_paths: 0
at 13 zero_duals: 5
Switching to elementary pricing
at13, LP obj: 8.553191489361701 n_added_paths: 36
at 13 zero_duals: 5
Switching to elementary pricing
at13, LP obj: 8.435483870967742 n_added_paths: 6
at 13 zero_duals: 6
Switching to elementary pricing
at13, LP obj: 8.435483870967742 n_added_paths: 0
at 16 zero_duals: 2
Switching to elementary pricing
at16, LP obj: 8.472222222222223 n_added_paths: 4
at 16 zero_duals: 3
Switching to elementary pricing
at16, LP obj: 8.472222222222221 n_added_paths: 0
at 17 zero_duals: 47
Switching to elementary pricing
at17, LP obj: 1e+20 n_added_paths: 0
updated lowerbound from 9.0 to 100000000000000000000
at 19 zero_duals: 6
Switching to elementary pricing
at19, LP obj: 8.5625 n_added_paths: 6
at 19 zero_duals: 6
Switching to elementary pricing
at19, LP obj: 8.555555555555555 n_added_paths: 0
at 18 zero_duals: 3
Switching to elementary pricing
at18, LP obj: 8.47872340425532 n_added_paths: 0
at 22 zero_duals: 3
Switching to elementary pricing
at22, LP obj: 8.5375 n_added_paths: 11
at 22 zero_duals: 3
Switching to elementary pricing
at22, LP obj: 8.534883720930232 n_added_paths: 5
at 22 zero_duals: 4
Switching to elementary pricing
at22, LP obj: 8.534883720930232 n_added_paths: 0
at 23 zero_duals: 3
Switching to elementary pricing
at23, LP obj: 8.569767441860465 n_added_paths: 4
at 23 zero_duals: 3
Switching to elementary pricing
at23, LP obj: 8.569767441860465 n_added_paths: 0
at 26 zero_duals: 9
Switching to elementary pricing
at26, LP obj: 8.634146341463415 n_added_paths: 6
at 26 zero_duals: 4
Switching to elementary pricing
at26, LP obj: 8.607142857142858 n_added_paths: 0
at 27 zero_duals: 6
Switching to elementary pricing
at27, LP obj: 8.631578947368421 n_added_paths: 5
at 27 zero_duals: 5
Switching to elementary pricing
at27, LP obj: 8.61111111111111 n_added_paths: 1
at 27 zero_duals: 5
Switching to elementary pricing
at27, LP obj: 8.61111111111111 n_added_paths: 0
at 29 zero_duals: 47
Switching to elementary pricing
at29, LP obj: 1e+20 n_added_paths: 0
updated lowerbound from 9.0 to 100000000000000000000
at 28 zero_duals: 8
Switching to elementary pricing
at28, LP obj: 8.631578947368421 n_added_paths: 0
at 32 zero_duals: 5
Switching to elementary pricing
at32, LP obj: 8.68 n_added_paths: 12
at 32 zero_duals: 4
Switching to elementary pricing
at32, LP obj: 8.67 n_added_paths: 0
at 20 zero_duals: 8
Switching to elementary pricing
at20, LP obj: 8.642857142857142 n_added_paths: 28
at 20 zero_duals: 4
Switching to elementary pricing
at20, LP obj: 8.617021276595745 n_added_paths: 9
at 20 zero_duals: 5
Switching to elementary pricing
at20, LP obj: 8.617021276595745 n_added_paths: 4
at 20 zero_duals: 5
Switching to elementary pricing
at20, LP obj: 8.617021276595745 n_added_paths: 0
at 36 zero_duals: 4
Switching to elementary pricing
at36, LP obj: 8.617391304347827 n_added_paths: 0
at 21 zero_duals: 3
Switching to elementary pricing
at21, LP obj: 8.5625 n_added_paths: 1
at 21 zero_duals: 3
Switching to elementary pricing
at21, LP obj: 8.5625 n_added_paths: 0
at 40 zero_duals: 2
Switching to elementary pricing
at40, LP obj: 8.625 n_added_paths: 6
at 40 zero_duals: 3
Switching to elementary pricing
at40, LP obj: 8.625 n_added_paths: 0
at 42 zero_duals: 3
Switching to elementary pricing
at42, LP obj: 8.697674418604652 n_added_paths: 55
at 42 zero_duals: 5
Switching to elementary pricing
at42, LP obj: 8.666666666666668 n_added_paths: 0
at 44 zero_duals: 5
Switching to elementary pricing
at44, LP obj: 8.67741935483871 n_added_paths: 4
at 44 zero_duals: 5
Switching to elementary pricing
at44, LP obj: 8.677419354838708 n_added_paths: 0
at 46 zero_duals: 4
Switching to elementary pricing
at46, LP obj: 8.791666666666666 n_added_paths: 31
at 46 zero_duals: 2
Switching to elementary pricing
at46, LP obj: 8.775862068965518 n_added_paths: 3
at 46 zero_duals: 3
Switching to elementary pricing
at46, LP obj: 8.775 n_added_paths: 4
at 46 zero_duals: 3
Switching to elementary pricing
at46, LP obj: 8.775 n_added_paths: 0
at 45 zero_duals: 47
Switching to elementary pricing
at45, LP obj: 1e+20 n_added_paths: 0
updated lowerbound from 9.0 to 100000000000000000000
at 43 zero_duals: 4
Switching to elementary pricing
at43, LP obj: 8.666666666666666 n_added_paths: 5
at 43 zero_duals: 5
Switching to elementary pricing
at43, LP obj: 8.666666666666666 n_added_paths: 2
at 43 zero_duals: 5
Switching to elementary pricing
at43, LP obj: 8.666666666666668 n_added_paths: 0
at 50 zero_duals: 5
Switching to elementary pricing
at50, LP obj: 8.685714285714285 n_added_paths: 3
at 50 zero_duals: 4
Switching to elementary pricing
at50, LP obj: 8.685714285714287 n_added_paths: 0
at 52 zero_duals: 4
Switching to elementary pricing
at52, LP obj: 8.833333333333334 n_added_paths: 11
at 52 zero_duals: 4
Switching to elementary pricing
at52, LP obj: 8.83177570093458 n_added_paths: 2
at 52 zero_duals: 4
Switching to elementary pricing
at52, LP obj: 8.83177570093458 n_added_paths: 0
at 51 zero_duals: 25
Switching to elementary pricing
at51, LP obj: 9.0 n_added_paths: 19
at 51 zero_duals: 8
Switching to elementary pricing
at51, LP obj: 8.9 n_added_paths: 19
at 51 zero_duals: 10
Switching to elementary pricing
at51, LP obj: 8.9 n_added_paths: 2
at 51 zero_duals: 3
Switching to elementary pricing
at51, LP obj: 8.897435897435898 n_added_paths: 1
at 51 zero_duals: 3
Switching to elementary pricing
at51, LP obj: 8.897435897435898 n_added_paths: 0
at 56 zero_duals: 7
Switching to elementary pricing
at56, LP obj: 9.0 n_added_paths: 3
Best solution found:
[43, 10, 35, 43] 1.0 1.0
checking cycle [43, 10, 35, 43]
[43, 10, 35, 43] 1562 1357
[47, 25, 12, 26, 47] 1.0 1.0
checking cycle [47, 25, 12, 26, 47]
[47, 25, 12, 26, 47] 1438 1311
[30, 7, 22, 11, 23, 2, 30] 1.0 1.0
checking cycle [30, 7, 22, 11, 23, 2, 30]
[30, 7, 22, 11, 23, 2, 30] 1880 1840
[39, 36, 8, 31, 3, 39] 1.0 1.0
checking cycle [39, 36, 8, 31, 3, 39]
[39, 36, 8, 31, 3, 39] 1713 1680
[46, 14, 1, 33, 44, 46] 1.0 1.0
checking cycle [46, 14, 1, 33, 44, 46]
[46, 14, 1, 33, 44, 46] 1479 1364
[28, 21, 13, 15, 18, 28] 1.0 1.0
checking cycle [28, 21, 13, 15, 18, 28]
[28, 21, 13, 15, 18, 28] 1930 1840
[42, 20, 5, 38, 40, 42] 1.0 1.0
checking cycle [42, 20, 5, 38, 40, 42]
[42, 20, 5, 38, 40, 42] 1640 1531
[37, 29, 24, 17, 27, 4, 6, 37] 1.0 1.0
checking cycle [37, 29, 24, 17, 27, 4, 6, 37]
[37, 29, 24, 17, 27, 4, 6, 37] 1780 1735
[45, 0, 32, 34, 16, 9, 19, 41, 45] 1.0 1.0
checking cycle [45, 0, 32, 34, 16, 9, 19, 41, 45]
[45, 0, 32, 34, 16, 9, 19, 41, 45] 1550 1392
